# INCAR step 1
ENCUT = 256.000000
SIGMA = 0.000500
EDIFF = 1.00e-06
PREC = Accurate
ISMEAR = 0
ISPIN = 2
ISYM = 0
KPAR = 1
NBANDS = 1536
NEDOS = 2001
LVTOT = .TRUE.
LREAL = Auto
NCORE = 4
LWAVE=.TRUE.
