Si511 P1                                
   1.00000000000000     
    21.8751800000000003    0.0000000000000000    0.0000000000000000
     0.0000000000000000   21.8751800000000003    0.0000000000000000
     0.0000000000000000    0.0000000000000000   21.8751800000000003
   Si   P 
   511     1
Direct
  0.0000014701925251  0.0000016636382616  0.0000013760283978
  0.0000032071174399  0.0000036044091671  0.2500200277449994
  0.0000082941763876  0.0000093824952169  0.4999999999812762
  0.0000034235424210  0.0000038373656800  0.7499812600845146
  0.0000031944415734  0.2500200929825429  0.0000030043651343
  0.0000324244939664  0.2500386614790555  0.2500382976799324
  0.0000044274027840  0.2500023428077273  0.5000002716263968
 -0.0000225214080233  0.2500373874881188  0.7499665373969130
  0.0000082959138508  0.4999999940535035  0.0000077662247378
  0.0000044403122252  0.5000003339682224  0.2500016331435395
  0.0000024576113709  0.5000013331952986  0.5000011263801198
  0.0000048139793466  0.5000005388537603  0.7500054001944846
  0.0000034367074678  0.7499813214843678  0.0000032357547242
 -0.0000226386850360  0.7499671101446884  0.2500368052393300
  0.0000048292315334  0.7500061182662505  0.5000004727988681
  0.0000341905853271  0.7499676555612169  0.7499672929504139
  0.2500200475490262  0.0000035992984083  0.0000030118979731
  0.2500383687611115  0.0000331656270299  0.2500382503659184
  0.2500018652076333  0.0000050568494680  0.5000002408737320
  0.2500370416784516 -0.0000218507119708  0.7499666381346903
  0.2500384397969437  0.2500386848032674  0.0000320646011341
  0.2500317700265567  0.2500322024790030  0.2500315595635991
  0.2503498668972507  0.2503505300898384  0.5001090495183714
  0.2499237345817593  0.2499241520476392  0.7500820289171446
  0.2500018645077856  0.5000003498110813  0.0000041328633016
  0.2503493470874609  0.5001102926382098  0.2503490256174937
  0.2497268449869424  0.5000098248634063  0.5000082780225553
  0.2503442875092211  0.4999041069777662  0.7496657513448771
  0.2500369733757506  0.7499670604704561 -0.0000229661097720
  0.2499231997249100  0.7500831812142719  0.2499229952278607
  0.2503437675385084  0.7496672642539908  0.4999028694898818
  0.2500257921464971  0.7499812500484817  0.7499805954263722
  0.4999999978857879  0.0000093831574542  0.0000077648762294
  0.5000002610493457  0.0000050621146942  0.2500016332765101
  0.5000011935652483  0.0000028237106148  0.5000011265472329
  0.5000005245384961  0.0000054467287228  0.7500054014780326
  0.5000003075404523  0.2500023423671757  0.0000041251119528
  0.5001094544726705  0.2503503608492293  0.2503493762822449
  0.5000087212893255  0.2497283551587286  0.5000082180564533
  0.4999032778312324  0.2503453562081032  0.7496653526351417
  0.5000011931598634  0.5000013330917659  0.0000022769083049
  0.5000088129879662  0.5000098564206917  0.2497261093063573
  0.5000084242785656  0.5000095988641983  0.7502952837003453
  0.5000004783833440  0.7500061174775355  0.0000045183845418
  0.4999032730856794  0.7496674611506779  0.2503432443261200
  0.5000085202027305  0.7502975414076862  0.5000079470886241
  0.5001099574230393  0.7496728359469964  0.7496718420318651
  0.7499812785325068  0.0000038428517972  0.0000032276193010
  0.7499668261091637 -0.0000218877427469  0.2500368504639067
  0.7500056364246271  0.0000054530866704  0.5000005031429083
  0.7499673145296055  0.0000348481216129  0.7499671958877309
  0.7499666757663596  0.2500373647762267 -0.0000228861553578
  0.7500824024990517  0.2499239814497153  0.2499233594711178
  0.7496658460984144  0.2503451869359064  0.4999028736991672
  0.7499803924788372  0.2500266475928395  0.7499801778028958
  0.7500056343079764  0.5000005228947402  0.0000045092442202
  0.7496664414739691  0.4999041062710857  0.2503435952261007
  0.7502960230009860  0.5000096319824499  0.5000078845712961
  0.7496717667115851  0.5001107976501382  0.7496714416655386
  0.7499674598168542  0.7499677035786112  0.0000338693459242
  0.7499810153265809  0.7499814556068387  0.2500253730752229
  0.7496723647006004  0.7496730336572813  0.5001095477499229
  0.7500898962028371  0.7500903138067141  0.7500896913295927
  0.1250123246106034  0.1250124741751892  0.0000120894331759
  0.1250113971703736  0.1250118175865477  0.2500277779242081
  0.1251608952446883  0.1251614032459082  0.4999988997867522
  0.1249912885106667  0.1249917488916328  0.7500026533107311
  0.1250146131959316  0.3750286602031382  0.0000226296944330
  0.1250555119119650  0.3750428076044278  0.2500604295012848
  0.1249325443983424  0.3749974418128091  0.5000341189683558
  0.1250014953790253  0.3750055984648434  0.7500348754323550
  0.1250138997243223  0.6249717559390028 -0.0000105029168499
  0.1250042585836504  0.6249991687245368  0.2499748880479324
  0.1249280712666921  0.6250119761554664  0.4999714935773335
  0.1250490824184182  0.6249621562726826  0.7499496353414058
  0.1250113833197255  0.8749906594192501 -0.0000069187722732
  0.1249913639933559  0.8750159980551679  0.2499989516496291
  0.1251570071365705  0.8748515078217243  0.5000022188647752
  0.1250112123743474  0.8749962805533429  0.7499746397729361
  0.3750286803617900  0.1250153840273962  0.0000226555898283
  0.3750426146370940  0.1250561430037831  0.2500606615833414
  0.3749971166611670  0.1249331647126788  0.5000340783046332
  0.3750054384709148  0.1250021975165831  0.7500345336999309
  0.3749960640646595  0.3749961795242922  0.0000104381294750
  0.3750945901093483  0.3750955875000052  0.2500059226332889
  0.3752725854858420  0.3752741307734963  0.5008773390647446
  0.3748297364042610  0.3748307447363188  0.7502143198082925
  0.3749945488092493  0.6250073828801027 -0.0000040227691032
  0.3748325639674822  0.6251834946507331  0.2497984703195563
  0.3752699609148225  0.6247550935176099  0.4991461333744185
  0.3750894840078171  0.6249270638880444  0.7500171133076035
  0.3750279878857857  0.8749988137468920 -0.0000100901715725
  0.3750034790747754  0.8750074451705430  0.2499698145780077
  0.3749932026691854  0.8750826194213660  0.4999708793694632
  0.3750415160074644  0.8749616372859177  0.7499538544982460
  0.6249716926615351  0.1250147709557293 -0.0000104675789067
  0.6249987721528023  0.1250050777251740  0.2499751573921015
  0.6250111739083226  0.1249291601610804  0.4999715665682887
  0.6249617735136023  0.1250500018407839  0.7499493019267405
  0.6250071104192845  0.3749948232474284 -0.0000040284712937
  0.6251823141843436  0.3748337429980734  0.2497990752396496
  0.6247533198997047  0.3752717294803030  0.4991460695184449
  0.6249258879700540  0.3750906629413627  0.7500164672163255
  0.6250084343193731  0.6250085485843169  0.0000110608096575
  0.6249229321508801  0.6249239327623158  0.2499963124397254
  0.6247554400752804  0.6247569924192408  0.5008774153350832
  0.6251886020960772  0.6251896130812364  0.7502246356772801
  0.6249720629347838  0.8749991770839050  0.0000238841104984
  0.6249631208667219  0.8749593859877454  0.2500556602210927
  0.6250155105313348  0.8750857497210119  0.5000357119911992
  0.6250017007936240  0.8750125969693292  0.7500400081891961
  0.8749903778344683  0.1250116722426788 -0.0000069712606612
  0.8750155497287987  0.1249918174212531  0.2499989913928706
  0.8748505128897558  0.1251579999509443  0.5000021377255841
  0.8749958297668772  0.1250116653978914  0.7499745979410321
  0.8749979405986967  0.3750280530763804 -0.0000100472392854
  0.8750066193445630  0.3750038843646726  0.2499700863684401
  0.8750815282102660  0.3749940080105245  0.4999709491923021
  0.8749607153815165  0.3750419072770936  0.7499535147372193
  0.8749984001132221  0.6249720392336311  0.0000239046613367
  0.8749587449191931  0.6249633109748628  0.2500559010914198
  0.8750851277369179  0.6250158432098625  0.5000356739649521
  0.8750118942484879  0.6250018626897004  0.7500396657812475
  0.8749922819775160  0.8749924247432274  0.0000117848250571
  0.8749952917508644  0.8749957099112424  0.2500275140415526
  0.8748546955279191  0.8748552027699037  0.4999981966405556
  0.8750155322685994  0.8750159901023602  0.7500036619654441
  0.1250121879516082  0.0000125449011593  0.1250121141013365
  0.1250145705436744  0.0000240082639866  0.3750286221189516
  0.1250139327255962 -0.0000091155300535  0.6249717251969983
  0.1250115229078847 -0.0000064643738799  0.8749903059780729
  0.1250114101595204  0.2500279474543347  0.1250112084175059
  0.1250557591681279  0.2500613454902783  0.3750424041120125
  0.1250047345559696  0.2499758184540061  0.6249987466019987
  0.1249913888417391  0.2499992324960594  0.8750152983380747
  0.1251605004625390  0.4999988967495744  0.1251602546873321
  0.1249322715666190  0.5000347888659967  0.3749966146115853
  0.1249283500414954  0.4999721709423459  0.6250111382847083
  0.1251574038505181  0.5000022203501758  0.8748503534937948
  0.1249912682185552  0.7500029168510464  0.1249910439081496
  0.1250010163438151  0.7500358135662086  0.3750051747433272
  0.1250488297558540  0.7499505619583754  0.6249617478157246
  0.1250111988777934  0.7499748048782965  0.8749956752123139
  0.3750286117831579  0.0000239955621747  0.1250141959950453
  0.3749959489303661  0.0000111663451802  0.3749958930401412
  0.3749946629238627 -0.0000032931749909  0.6250071002275643
  0.3750280524003886 -0.0000087366919792  0.8749976330429591
  0.3750424953493807  0.2500612337067025  0.1250554532887487
  0.3750949064205861  0.2500073661358574  0.3750944223299733
  0.3748331899709271  0.2498008233062298  0.6251813738693689
  0.3750036712112446  0.2499712653780561  0.8750059157828052
  0.3749967730187023  0.5000348084417583  0.1249319720117099
  0.3752723616658782  0.5008798210126714  0.3752716095397431
  0.3752701689312037  0.4991485866450042  0.6247525813523304
  0.3749935528068277  0.4999716192073843  0.8750814148453813
  0.3750052519769601  0.7500359816797515  0.1250006755268687
  0.3748291108979471  0.7502166764796802  0.3748286185051239
  0.3750891732126302  0.7500185766548881  0.6249258852433115
  0.3750416444040485  0.7499544216781365  0.8749609387424050
  0.6249717573239099 -0.0000091306373935  0.1250135070907094
  0.6250072321194152 -0.0000032877091919  0.3749945306288903
  0.6250083142172552  0.0000117922209322  0.6250082583922865
  0.6249720013916712  0.0000252009409409  0.8749979100291868
  0.6249989361471949  0.2499756898977564  0.1250043384402314
  0.6251819479026131  0.2498005303340259  0.3748326163200507
  0.6249223546940271  0.2499987328363754  0.6249218686676482
  0.6249629514318971  0.2500570932264288  0.8749577627170143
  0.6250115289408482  0.4999721368718449  0.1249278222832731
  0.6247534413265030  0.4991486220847395  0.3752693103342680
  0.6247553399807942  0.5008800122778500  0.6247545838480300
  0.6250151477410788  0.5000362899606714  0.8750844093631234
  0.6249619357329140  0.7499507270858612  0.1250483815787814
  0.6249264595997550  0.7500188952746552  0.3750885967878837
  0.6251889680180437  0.7502261024383090  0.6251884742118711
  0.6250015295565737  0.7500405472625733  0.8750118574406336
  0.8749904427241784 -0.0000064366693599  0.1250113828348405
  0.8749980597597579 -0.0000087550356584  0.3750280191962058
  0.8749982880499810  0.0000251907105236  0.6249720133133879
  0.8749922137223868  0.0000123217887753  0.8749921429604054
  0.8750155164219803  0.2499992145590657  0.1249911680692929
  0.8750063147726767  0.2499711360222276  0.3750034770566749
  0.8749580734945405  0.2500569772697819  0.6249628608583487
  0.8749952265815447  0.2500277505237731  0.8749950253667715
  0.8748508379178509  0.5000022622876794  0.1251569202618182
  0.8750819432543322  0.4999715868240632  0.3749931605047223
  0.8750847096289064  0.5000363086503710  0.6250149848870584
  0.8748543669858811  0.4999983230891049  0.8748541210179438
  0.8749958955834539  0.7499748269845221  0.1250109777322395
  0.8749613873819920  0.7499545893791120  0.3750414524166810
  0.8750121980464770  0.7500407160030538  0.6250014504489406
  0.8750155555768979  0.7500038684001561  0.8750153323247587
  0.0000122371328908  0.1250124304229969  0.1250122068835112
  0.0000231058993070  0.1250153701251435  0.3750286671861046
 -0.0000100143121873  0.1250147818570486  0.6249716819080675
 -0.0000068236172791  0.1250117169451192  0.8749902620717035
  0.0000230672708217  0.3750286367751949  0.1250142246591524
  0.0000106765454683  0.3749961419545303  0.3749959705806634
 -0.0000037896417026  0.3749948607690234  0.6250070181195959
 -0.0000096055690919  0.3750280753509745  0.8749975544278377
 -0.0000100649830108  0.6249717771947062  0.1250134854658453
 -0.0000037786701740  0.6250074223615333  0.3749944540258097
  0.0000113018004052  0.6250085097279625  0.6250083395330878
  0.0000243362308098  0.6249720189261569  0.8749979838197296
 -0.0000067437178701  0.8749906805423170  0.1250112879796294
 -0.0000096668726542  0.8749988540400195  0.3750279770003747
  0.0000243056477033  0.8749991388806230  0.6249720544474495
  0.0000119606557193  0.8749924023794654  0.8749921890977335
  0.2500278319024435  0.1250118205113593  0.1250111986540933
  0.2500609592531783  0.1250562243317644  0.3750424839980007
  0.2499754596772008  0.1250052322976113  0.6249986361908280
  0.2499990833286332  0.1249918259652396  0.8750153200409082
  0.2500606157391046  0.3750427680934230  0.1250552871010269
  0.2500063956919426  0.3750956905066407  0.3750942090398093
  0.2497998453431786  0.3748339486581276  0.6251816190533432
  0.2499705606105136  0.3750039452335975  0.8750061208061712
  0.2499750617481970  0.6249992223609183  0.1250040171904253
  0.2497989475745802  0.6251833736150227  0.3748321958397954
  0.2499971087189946  0.6249237420046158  0.6249222553503960
  0.2500563702289422  0.6249632536842477  0.8749582134592733
  0.2499990254876167  0.8750159865915937  0.1249911519832609
  0.2499701593469410  0.8750073455529693  0.3750033457046906
  0.2500560136798484  0.8749591650245335  0.6249629730959139
  0.2500275911656896  0.8749956874008188  0.8749950681497497
  0.4999988972502992  0.1251612728361827  0.1251605191201864
  0.5000342976594377  0.1249330757308770  0.3749968461390974
  0.4999717879697075  0.1249292507871814  0.6250109000736795
  0.5000021369597291  0.1251581308526335  0.8748501345471519
  0.5000343577829036  0.3749973297429141  0.1249321559396775
  0.5008781516592663  0.3752740568273568  0.3752717593740623
  0.4991468736752566  0.3752717986667563  0.6247524962134586
  0.4999711911847147  0.3749941219579842  0.8750811360338320
  0.4999716811234323  0.6250120928634686  0.1249276341474159
  0.4991469730004039  0.6247551298207387  0.3752691712743581
  0.5008782698818444  0.6247569628422028  0.6247546546441408
  0.5000358643316651  0.6250157239376144  0.8750846902396794
  0.5000022601433897  0.8748516140114181  0.1251566542341881
  0.4999710891848699  0.8750827557500669  0.3749929241453351
  0.5000359208510992  0.8750856124513406  0.6250152282894528
  0.4999982388887058  0.8748550952559386  0.8748543420575577
  0.7500027397402963  0.1249917417977567  0.1249910565401660
  0.7500348386764896  0.1250020418886454  0.3750053018947234
  0.7499496035572809  0.1250499190512266  0.6249616408315873
  0.7499746506754913  0.1250116622921197  0.8749956319869726
  0.7500353484367731  0.3750055390684254  0.1250009988584258
  0.7502150907564541  0.3748305398093146  0.3748290391892025
  0.7500169466472725  0.3750905612846124  0.6249255020887414
  0.7499536998622586  0.3750419496786410  0.8749604876342806
  0.7499501022310918  0.6249622114092993  0.1250485514582771
  0.7500179111338495  0.6249272525108006  0.3750888062226460
  0.7502251163660252  0.6251897343677913  0.6251882293022497
  0.7500398423348305  0.6250018065948379  0.8750116530060839
  0.7499747144531318  0.8749963031888055  0.1250109879051391
  0.7499542072579652  0.8749618585714286  0.3750413663740133
  0.7500403533234027  0.8750126963282526  0.6250015656279834
  0.7500037308040848  0.8750159983825215  0.8750153172490682
  0.1875154537865704  0.0625103936776487  0.0625099508846568
  0.1875346247017608  0.0625395898446788  0.3125346768053807
  0.1875218727270629  0.0625181686209428  0.5624831550852754
  0.1875202545494548  0.0624905666710589  0.8124827454204018
  0.1875344054250647  0.3125348474422300  0.0625385333239486
  0.1875538813194842  0.3125181638525693  0.3125172508166282
  0.1874424397656487  0.3124990595623702  0.5624737456003840
  0.1874839525492868  0.3125003005569588  0.8125217809779726
  0.1875216365847713  0.5624832304921523  0.0625170830123218
  0.1874417961329754  0.5624745162298348  0.3124979881787856
  0.1873361651006689  0.5625258338184485  0.5625249288797561
  0.1877540939026767  0.5624896324742658  0.8122532363858218
  0.1875203406498201  0.8124829972218602  0.0624898321710826
  0.1874836939353803  0.8125226419751195  0.3124999098184907
  0.1877536662967672  0.8122544053682682  0.5624891540508054
  0.1875081161371973  0.8124967745436101  0.8124963488496555
  0.4375183693875589  0.0625713864712465  0.0625700774310167
  0.4374921614297381  0.0624933643991290  0.3124935289844714
  0.4375055719346619  0.0624740440894956  0.5624987581260723
  0.4375173380690697  0.0625152561972649  0.8124889068752661
  0.4374921922750556  0.3124939408711309  0.0624926338082881
  0.4372966504050775  0.3129550809289783  0.3129535352925807
  0.4374448477855002  0.3120301748497953  0.5625765600313685
  0.4375350700531532  0.3124925064471212  0.8125716278381305
  0.4375054921829331  0.5624992395232609  0.0624731297543427
  0.4374446847539356  0.5625787878788494  0.3120276400909198
  0.4377188871639126  0.5623098283205864  0.5623071622328698
  0.4374838863540410  0.5625266537614582  0.8126792198769078
  0.4375173610039746  0.8124902611949445  0.0625138301866834
  0.4375351888437073  0.8125736308317313  0.3124907343568454
  0.4374838954381572  0.8126806777568512  0.5625257330245169
  0.4375163784371081  0.8122583535174157  0.8122576134150700
  0.6874711226718183  0.0624920446173371  0.0624908275974811
  0.6874843444613181  0.0625299943432112  0.3125206623611376
  0.6875139018869113  0.0624905415937723  0.5625115621851218
  0.6874681238916713  0.0625354927937222  0.8124752157565204
  0.6874844124783961  0.3125210721932449  0.0625291638082115
  0.6875755795501172  0.3124370397116937  0.3124358369911122
  0.6870694509048557  0.3129479850664459  0.5627252122104869
  0.6874998891662211  0.3125099704187284  0.8124659755384920
  0.6875142640450485  0.5625119005322619  0.0624894520780725
  0.6870702656034722  0.5627275899953871  0.3129456100054876
  0.6879980029921681  0.5625808703557031  0.5625787964799881
  0.6875197161613554  0.5624739162099639  0.8125784100923206
  0.6874683471403576  0.8124765081467353  0.0625339160308200
  0.6875006930771035  0.8124680057887486  0.3125082448156585
  0.6875204119630448  0.8125797659252365  0.5624730181070174
  0.6875043086132854  0.8125256159822186  0.8125250117471303
  0.9374934404050732  0.0625104523700161  0.0625100454486127
  0.9375191159878798  0.0624936002049206  0.3125298600140969
  0.9374446299171361  0.0625696797845018  0.5624819029623270
  0.9374959567341179  0.0625088315958146  0.8124879232326774
  0.9375189302629157  0.3125299598216361  0.0624925700792796
  0.9374787565260434  0.3125200850365489  0.3125196000097519
  0.9375174427053584  0.3124905245583050  0.5625109341553954
  0.9374768026310496  0.3125331926685305  0.8124778473752144
  0.9374448335122790  0.5624819437178227  0.0625681677894734
  0.9375178014091071  0.5625113058967364  0.3124897471237303
  0.9375360578359980  0.5624998337878190  0.5624994233926041
  0.9374971362823272  0.5624833772363655  0.8124920587048136
  0.9374961157629166  0.8124882285100117  0.0625082267059013
  0.9374773129659509  0.8124789107287131  0.3125327972032745
  0.9374974764248531  0.8124931780816474  0.5624832761164837
  0.9375175462921544  0.8124828775412282  0.8124825349601404
  0.0625100918678761  0.1875155843873209  0.0625099468875042
  0.0625389705366543  0.1875350745324791  0.3125346569290604
  0.0625175833679283  0.1875223956526751  0.5624831737904594
  0.0624899330387110  0.1875205620536196  0.8124826716364716
  0.0625704732194550  0.4375183878256183  0.0625700447077604
  0.0624927647667165  0.4374922565418553  0.3124934504342972
  0.0624735385235399  0.4375057696376510  0.5624988329466446
  0.0625144454428494  0.4375173803933067  0.8124891239821850
  0.0624914296575777  0.6874711546026832  0.0624910304224664
  0.0625293092023889  0.6874847575895864  0.3125205741123022
  0.0624896999056452  0.6875145048668280  0.5625117143583547
  0.0625345293922512  0.6874683982708055  0.8124754822568379
  0.0625101696492430  0.9374937243139183  0.0625100351627650
  0.0624931101610874  0.9375195984462696  0.3125298915431463
  0.0625686329280029  0.9374456840056749  0.5624819169904982
  0.0625084217010341  0.9374963629680666  0.8124880038742934
  0.3125347137764465  0.1875350028683392  0.0625386264081017
  0.3125177702921257  0.1875545015686415  0.3125174714078817
  0.3124985436995911  0.1874430841490285  0.5624735600739402
  0.3125001045156639  0.1874844263745060  0.8125217062645536
  0.3124935854473644  0.4374922657154206  0.0624925256086611
  0.3129539804229426  0.4372978017745905  0.3129534758496821
  0.3120285193656998  0.4374461684091581  0.5625766365463876
  0.3124915223445061  0.4375358551005373  0.8125718961465435
  0.3125207078521200  0.6874847791711792  0.0625290366180867
  0.3124359326425835  0.6875766862028631  0.3124355373916768
  0.3129463349743502  0.6870710970260695  0.5627256546201991
  0.3125090301762254  0.6875008207364737  0.8124667155172308
  0.3125299239606725  0.9375195368553615  0.0624927725212407
  0.3125196677796056  0.9374794434085058  0.3125195094284925
  0.3124899227737198  0.9375182835272261  0.5625110864222811
  0.3125329073112413  0.9374777714764099  0.8124781174264188
  0.5624831983467763  0.1875223192794696  0.0625172293177465
  0.5624738106967576  0.1874428725117369  0.3124981937802601
  0.5625248110637340  0.1873375627532634  0.5625245163057956
  0.5624891214163057  0.1877550423553112  0.8122527852743164
  0.5624989900928163  0.4375057429154657  0.0624732393166596
  0.5625773625270396  0.4374461157254376  0.3120276907077467
  0.5623075998465937  0.4377210977886963  0.5623067266971812
  0.5625256181787163  0.4374849235699267  0.8126788022440325
  0.5625118257222045  0.6875146237047114  0.0624893414419742
  0.5627264376481859  0.6870713660778947  0.3129455556109483
  0.5625795465482116  0.6879996655191655  0.5625788692226311
  0.5624731253411521  0.6875207096450013  0.8125786790839019
  0.5624819308573518  0.9374457514554663  0.0625681369350940
  0.5625112080510165  0.9375184028357032  0.3124896677646186
  0.5624996333513695  0.9375365604360364  0.5624994995394623
  0.5624833335860165  0.9374979422733812  0.8124922818357393
  0.8124827533544418  0.1875205919608831  0.0624896926325213
  0.8125219876340660  0.1874843425353902  0.3124999775373784
  0.8122531686632934  0.1877549013640858  0.5624889663450745
  0.8124961295287182  0.1875087617425056  0.8124959905697515
  0.8124895665927521  0.4375173884987985  0.0625139787922958
  0.8125725508792441  0.4375358955634291  0.3124909420788097
  0.8126792771343504  0.4374849288689291  0.5625253157574601
  0.8122574028338290  0.4375169046293212  0.8122571604430080
  0.8124759073826098  0.6874684727650054  0.0625340120211256
  0.8124673806634033  0.6875010832175319  0.3125084653903382
  0.8125791211309692  0.6875209383479408  0.5624728311335511
  0.8125251353015938  0.6875045053249510  0.8125249371565665
  0.8124881030456363  0.9374964152262549  0.0625082234891522
  0.8124784674547296  0.9374779412206080  0.3125327752158539
  0.8124926490417629  0.9374980546745082  0.5624832993013403
  0.8124825785926100  0.9375181806357951  0.8124824653741645
  0.0625100982086362  0.0625103961694590  0.1875153892809311
  0.0625705211828024  0.0625714018077570  0.4375183598399641
  0.0624911267259346  0.0624919440315254  0.6874711077787430
  0.0625101841400234  0.0625104564181364  0.9374933013876631
  0.0625388337628743  0.3125348561626192  0.1875341874627918
  0.0624929243062537  0.3124939798935663  0.4374921475483988
  0.0625294965950290  0.3125211155445770  0.6874842126635097
  0.0624928070695135  0.3125299442311629  0.9375186965237549
  0.0625173681514928  0.5624832202687272  0.1875213824193187
  0.0624733770133173  0.5624992038302912  0.4375053971014624
  0.0624898629984239  0.5625118256501477  0.6875139689796885
  0.0625686777014385  0.5624819370134924  0.9374443196617814
  0.0624901422474892  0.8124830324127240  0.1875201904472882
  0.0625142270780490  0.8124901551531363  0.4375173403008989
  0.0625343883756932  0.8124763747633699  0.6874682101891678
  0.0625084269233475  0.8124881910923265  0.9374959172972867
  0.3125347423509651  0.0625395459392159  0.1875343353688557
  0.3124937028000471  0.0624934158910988  0.4374921258402381
  0.3125208395145553  0.0625300544306491  0.6874841661611367
  0.3125298769336483  0.0624934995343952  0.9375188205854319
  0.3125174400236612  0.3125180540289970  0.1875535779077081
  0.3129540667320770  0.3129551077049060  0.4372960895261541
  0.3124363745353517  0.3124371822083093  0.6875750421115616
  0.3125198017628169  0.3125201284577238  0.9374784229741109
  0.3124982394142644  0.5624746085111602  0.1874414840169283
  0.3120284504472042  0.5625787537421362  0.4374440432977036
  0.3129464136609773  0.5627273693264002  0.6870694650683669
  0.3124900410233779  0.5625112304736648  0.9375173909893676
  0.3125000039202842  0.8125226787413574  0.1874834622278365
  0.3124912157070399  0.8125735013781462  0.4375348038309096
  0.3125087000364943  0.8124676460941912  0.6875002420596451
  0.3125329389206249  0.8124787759387709  0.9374768386951329
  0.5624831696133331  0.0625180996773833  0.1875215421008969
  0.5624988796560189  0.0624739921829683  0.4375054501176148
  0.5625115985263521  0.0624905939896452  0.6875137258195012
  0.5624819101152141  0.0625696940451956  0.9374441834372602
  0.5624740884685537  0.3124989608664305  0.1874419160930185
  0.5625772517422352  0.3120301564367749  0.4374441537247958
  0.5627257745773435  0.3129480095644052  0.6870689192967234
  0.5625109802223061  0.3124905635673819  0.9375171513979804
  0.5625254273091299  0.5625260373080682  0.1873354885152664
  0.5623082550562993  0.5623100480867855  0.4377178009749429
  0.5625794410117575  0.5625808373086988  0.6879971894948171
  0.5624995206266756  0.5624997972980469  0.9375358121938873
  0.5624894020014016  0.8122546258702940  0.1877532033275887
  0.5625262417008772  0.8126808810048063  0.4374833865480209
  0.5624734056485574  0.8125796363428005  0.6875199261686327
  0.5624832978776236  0.8124930689050865  0.9374970820654485
  0.8124828622567151  0.0624906367218613  0.1875201339756347
  0.8124892434349468  0.0625151863782514  0.4375173254124006
  0.8124755072603860  0.0625354475810332  0.6874680614652293
  0.8124879852314171  0.0625088337608368  0.9374958102478800
  0.8125220989788038  0.3125002676170616  0.1874836369978108
  0.8125721531501074  0.3124924074680248  0.4375347257061289
  0.8124662814141957  0.3125098608049521  0.6874997004411718
  0.8124780627020953  0.3125332023922267  0.9374764977396512
  0.8122538402400415  0.5624897250931491  0.1877534902775975
  0.8126798977602239  0.5625268597439811  0.4374833830077609
  0.8125787224187865  0.5624740096632986  0.6875194590070492
  0.8124923168350265  0.5624833647314620  0.9374968544678361
  0.8124966682753783  0.8124969552302971  0.1875077965249219
  0.8122580772764499  0.8122585751377771  0.4375161229732021
  0.8125252466860147  0.8125256527815776  0.6875042139730922
  0.8124826816374487  0.8124829110105997  0.9375172356676937
  0.1875121016691225  0.1875123896393543  0.1875119625859358
  0.1877610051556567  0.1877615000515844  0.4375187786739889
  0.1874849919151035  0.1874853931328478  0.6875030658740593
  0.1875215642588001  0.1875217972690735  0.9375189429252793
  0.1877605776905954  0.4375192659484194  0.1877603372084276
  0.1873428465189648  0.4374903367151233  0.4374894293250731
  0.1874379150164090  0.4375380172458823  0.6875159987129117
  0.1875185406071005  0.4375173861048690  0.9374940232589517
  0.1874847313599666  0.6875034523369958  0.1874845354435349
  0.1874372660174667  0.6875170863348309  0.4375372546807393
  0.1875420760192427  0.6874981182960282  0.6874972055525161
  0.1875313031962362  0.6874689194287893  0.9374748729370235
  0.1875216477708583  0.9375196731125176  0.1875215331847847
  0.1875182977001278  0.9374951130729702  0.4375173096745292
  0.1875310726490144  0.9374759487941131  0.6874687652643949
  0.1875136300414539  0.9374962726435546  0.9374958325923637
  0.4375189356487100  0.1877613589545354  0.1877606239021011
  0.4374897194840626  0.1873438288530634  0.4374894236810327
  0.4375374252776322  0.1874388267226214  0.6875155352338373
  0.4375173246997858  0.1875192827872522  0.9374937970093976
  0.4374897308303327  0.4374903425530300  0.1873423714406801
  0.4377238954455658  0.4377256675611049  0.4377230321098545
  0.4374430858925479  0.4374444902829663  0.6879948696107491
  0.4375042051159909  0.4375044810618226  0.9375336037722491
  0.4375375423968278  0.6875173129024621  0.1874368246695550
  0.4374429267728464  0.6879974076587762  0.4374422460036367
  0.4372910185042534  0.6870724702541274  0.6870709194940118
  0.4374900616145404  0.6875155552775803  0.9375195492855106
  0.4375173413248977  0.9374952246988079  0.1875179352552801
  0.4375041277727812  0.9375345201926625  0.4375039946024342
  0.4374900935867417  0.9375202727662832  0.6875151334356056
  0.4375180811328256  0.9374463387687039  0.9374450255357142
  0.6875031913159420  0.1874853087198117  0.1874847113939333
  0.6875158901008664  0.1874386131321409  0.4375371770443068
  0.6874969656202957  0.1875434377724148  0.6874966662836759
  0.6874686678483750  0.1875320178361906  0.9374745325255386
  0.6875165801804745  0.4375380564875019  0.1874372602460196
  0.6879956990033939  0.4374444392527841  0.4374423541670614
  0.6870708793085684  0.4372926236398942  0.6870703724832767