Si63 P1
1.0
  10.9375900000000001    0.0000000000000000    0.0000000000000000
   0.0000000000000000   10.9375900000000001    0.0000000000000000
   0.0000000000000000    0.0000000000000000   10.9375900000000001
Si P
63 1
direct
   0.0000000000000000    0.0000000000000000    0.0000000000000000 Si
   0.0000000000000000    0.0000000000000000    0.5000000000000000 Si
   0.0000000000000000    0.5000000000000000    0.0000000000000000 Si
   0.0000000000000000    0.5000000000000000    0.5000000000000000 Si
   0.5000000000000000    0.0000000000000000    0.0000000000000000 Si
   0.5000000000000000    0.0000000000000000    0.5000000000000000 Si
   0.5000000000000000    0.5000000000000000    0.0000000000000000 Si
   0.2500000000000000    0.2500000000000000    0.0000000000000000 Si
   0.2500000000000000    0.2500000000000000    0.5000000000000000 Si
   0.2500000000000000    0.7500000000000000    0.0000000000000000 Si
   0.2500000000000000    0.7500000000000000    0.5000000000000000 Si
   0.7500000000000000    0.2500000000000000    0.0000000000000000 Si
   0.7500000000000000    0.2500000000000000    0.5000000000000000 Si
   0.7500000000000000    0.7500000000000000    0.0000000000000000 Si
   0.7500000000000000    0.7500000000000000    0.5000000000000000 Si
   0.2500000000000000    0.0000000000000000    0.2500000000000000 Si
   0.2500000000000000    0.0000000000000000    0.7500000000000000 Si
   0.2500000000000000    0.5000000000000000    0.2500000000000000 Si
   0.2500000000000000    0.5000000000000000    0.7500000000000000 Si
   0.7500000000000000    0.0000000000000000    0.2500000000000000 Si
   0.7500000000000000    0.0000000000000000    0.7500000000000000 Si
   0.7500000000000000    0.5000000000000000    0.2500000000000000 Si
   0.7500000000000000    0.5000000000000000    0.7500000000000000 Si
   0.0000000000000000    0.2500000000000000    0.2500000000000000 Si
   0.0000000000000000    0.2500000000000000    0.7500000000000000 Si
   0.0000000000000000    0.7500000000000000    0.2500000000000000 Si
   0.0000000000000000    0.7500000000000000    0.7500000000000000 Si
   0.5000000000000000    0.2500000000000000    0.2500000000000000 Si
   0.5000000000000000    0.2500000000000000    0.7500000000000000 Si
   0.5000000000000000    0.7500000000000000    0.2500000000000000 Si
   0.5000000000000000    0.7500000000000000    0.7500000000000000 Si
   0.3750000000000000    0.1250000000000000    0.1250000000000000 Si
   0.3750000000000000    0.1250000000000000    0.6250000000000000 Si
   0.3750000000000000    0.6250000000000000    0.1250000000000000 Si
   0.3750000000000000    0.6250000000000000    0.6250000000000000 Si
   0.8750000000000000    0.1250000000000000    0.1250000000000000 Si
   0.8750000000000000    0.1250000000000000    0.6250000000000000 Si
   0.8750000000000000    0.6250000000000000    0.1250000000000000 Si
   0.8750000000000000    0.6250000000000000    0.6250000000000000 Si
   0.1250000000000000    0.3750000000000000    0.1250000000000000 Si
   0.1250000000000000    0.3750000000000000    0.6250000000000000 Si
   0.1250000000000000    0.8750000000000000    0.1250000000000000 Si
   0.1250000000000000    0.8750000000000000    0.6250000000000000 Si
   0.6250000000000000    0.3750000000000000    0.1250000000000000 Si
   0.6250000000000000    0.3750000000000000    0.6250000000000000 Si
   0.6250000000000000    0.8750000000000000    0.1250000000000000 Si
   0.6250000000000000    0.8750000000000000    0.6250000000000000 Si
   0.1250000000000000    0.1250000000000000    0.3750000000000000 Si
   0.1250000000000000    0.1250000000000000    0.8750000000000000 Si
   0.1250000000000000    0.6250000000000000    0.3750000000000000 Si
   0.1250000000000000    0.6250000000000000    0.8750000000000000 Si
   0.6250000000000000    0.1250000000000000    0.3750000000000000 Si
   0.6250000000000000    0.1250000000000000    0.8750000000000000 Si
   0.6250000000000000    0.6250000000000000    0.3750000000000000 Si
   0.6250000000000000    0.6250000000000000    0.8750000000000000 Si
   0.3750000000000000    0.3750000000000000    0.3750000000000000 Si
   0.3750000000000000    0.3750000000000000    0.8750000000000000 Si
   0.3750000000000000    0.8750000000000000    0.3750000000000000 Si
   0.3750000000000000    0.8750000000000000    0.8750000000000000 Si
   0.8750000000000000    0.3750000000000000    0.3750000000000000 Si
   0.8750000000000000    0.3750000000000000    0.8750000000000000 Si
   0.8750000000000000    0.8750000000000000    0.3750000000000000 Si
   0.8750000000000000    0.8750000000000000    0.8750000000000000 Si
   0.5000000000000000    0.5000000000000000    0.5000000000000000 P
